<number of tasks>
20

<cycle time>
1000

<order strength>
0,805


<task times>
1 57
2 109
3 309
4 56
5 91
6 122
7 155
8 181
9 123
10 116
11 242
12 119
13 129
14 202
15 260
16 53
17 192
18 87
19 196
20 22

<precedence relations>
1,3
2,4
2,5
3,5
3,6
4,12
5,7
6,7
7,8
7,9
8,10
8,12
9,11
9,12
10,13
10,14
10,15
11,13
11,14
12,15
12,16
13,16
13,17
13,18
14,16
14,17
15,17
15,18
17,19
18,19
18,20

<end>
